Al Cl Li O 
 1.0000000000000000
    10.6690000000000005    0.0000000000000000    0.0000000000000000
     0.0000000000000000   20.3170000000000002    0.0000000000000000
     0.0000000000000000    0.0000000000000000   12.3659999999999997
 Al  Cl  Li  O  
  24  62  22  16
Cartesian
  9.7591476799999999  7.8385017699999997  0.7023888000000000
  2.2136041199999998 15.2377500000000001 12.2330655000000004
  7.5481041199999996 15.2377500000000001  9.4074345000000008
  8.4553958799999993  5.0792500000000000  6.3159345000000000
  6.2443523200000000 17.9970017700000007  9.9768887999999993
  9.7591476799999999  2.3199982299999999  6.8853888000000003
  4.4246476799999996  7.8385017699999997  8.5721112000000002
  0.9098523200000000 12.4784982299999996 11.6636112000000001
  4.4246476799999996  2.3199982299999999  8.5721112000000002
  0.9098523200000000 17.9970017700000007 11.6636112000000001
  6.2443523200000000 12.4784982299999996  9.9768887999999993
  9.7591476799999999  7.8385017699999997  6.8853888000000003
  3.1208958800000000  5.0792500000000000  9.1415655000000005
  4.4246476799999996  7.8385017699999997  2.3891111999999999
  6.2443523200000000 12.4784982299999996  3.7938888000000000
  0.9098523200000000 17.9970017700000007  5.4806112000000002
  4.4246476799999996  2.3199982299999999  2.3891111999999999
  0.9098523200000000 12.4784982299999996  5.4806112000000002
  9.7591476799999999  2.3199982299999999  0.7023888000000000
  2.2136041199999998 15.2377500000000001  6.0500654999999997
  7.5481041199999996 15.2377500000000001  3.2244345000000001
  8.4553958799999993  5.0792500000000000  0.1329345000000000
  6.2443523200000000 17.9970017700000007  3.7938888000000000
  3.1208958800000000  5.0792500000000000  2.9585655000000002
  2.1674073500000000 19.2109425199999997  6.4744047900000004
  4.4818335200000003 12.5662676700000002  9.0138247200000006
  9.8163335200000006 17.9092323299999983  6.4436752799999999
  6.1871664800000001  2.4077676700000001  9.5351752800000007
  9.8163335200000006 12.5662676700000002  6.4436752799999999
  6.1871664800000001  7.7507323299999999  9.5351752800000007
  0.8526664800000000  7.7507323299999999  5.9223247199999998
  4.4818335200000003 17.9092323299999983  9.0138247200000006
  8.5015926499999992  9.0524425199999996 12.0745952100000000
  7.5019073499999998 11.2645574800000006  8.9830952100000001
  0.8526664800000000  7.7507323299999999 12.1053247200000005
  4.4818335200000003 12.5662676700000002  2.8308247199999999
  3.1670926499999998  9.0524425199999996  9.5659047899999994
  1.1537456600000000  5.0792500000000000  8.7498724499999998
  4.1807543400000000 15.2377500000000001 11.8413724499999997
  9.5152543400000003 15.2377500000000001  9.7991275499999997
  6.4882456599999996  5.0792500000000000  6.7076275499999998
  3.4062916300000001  5.0792500000000000 11.1301419599999996
  1.9282083699999999 15.2377500000000001  8.0386419599999996
  7.2627083700000004 15.2377500000000001  7.4188580399999999
  8.7407916300000004  5.0792500000000000 10.5103580399999998
  2.1674073500000000 11.2645574800000006  6.4744047900000004
  5.9714393000000001 18.6841227100000005 11.8397030399999998
  4.6975607000000004  8.5256227100000004  6.7092969599999996
  0.6369393000000000 11.7913772899999998  9.8007969599999996
  4.6975607000000004  1.6328772899999999  6.7092969599999996
  0.6369393000000000 18.6841227100000005  9.8007969599999996
  5.9714393000000001 11.7913772899999998 11.8397030399999998
 10.0320607000000006  8.5256227100000004  8.7482030399999999
  7.5019073499999998 19.2109425199999997  8.9830952100000001
  8.5015926499999992  1.1060574800000000 12.0745952100000000
 10.0320607000000006  1.6328772899999999  8.7482030399999999
  3.1670926499999998  1.1060574800000000  9.5659047899999994
  0.8526664800000000  2.4077676700000001 12.1053247200000005
  6.1871664800000001  7.7507323299999999  3.3521752800000000
  5.9714393000000001 11.7913772899999998  5.6567030400000000
 10.0320607000000006  8.5256227100000004  2.5652030400000001
  8.5015926499999992  1.1060574800000000  5.8915952100000002
  3.1670926499999998  9.0524425199999996  3.3829047900000000
  2.1674073500000000 11.2645574800000006  0.2914047900000000
  3.1670926499999998  1.1060574800000000  3.3829047900000000
  0.6369393000000000 18.6841227100000005  3.6177969600000002
  2.1674073500000000 19.2109425199999997  0.2914047900000000
  8.5015926499999992  9.0524425199999996  5.8915952100000002
  4.4818335200000003 17.9092323299999983  2.8308247199999999
  0.8526664800000000  2.4077676700000001  5.9223247199999998
  9.8163335200000006 12.5662676700000002  0.2606752800000000
  6.1871664800000001  2.4077676700000001  3.3521752800000000
  9.8163335200000006 17.9092323299999983  0.2606752800000000
  7.5019073499999998 11.2645574800000006  2.8000952099999998
  4.6975607000000004  1.6328772899999999  0.5262969600000000
  7.5019073499999998 19.2109425199999997  2.8000952099999998
  4.6975607000000004  8.5256227100000004  0.5262969600000000
  0.6369393000000000 11.7913772899999998  3.6177969600000002
  1.1537456600000000  5.0792500000000000  2.5668724500000000
  9.5152543400000003 15.2377500000000001  3.6161275499999999
  6.4882456599999996  5.0792500000000000  0.5246275500000001
  4.1807543400000000 15.2377500000000001  5.6583724499999999
  7.2627083700000004 15.2377500000000001  1.2358580400000001
  5.9714393000000001 18.6841227100000005  5.6567030400000000
 10.0320607000000006  1.6328772899999999  2.5652030400000001
  1.9282083699999999 15.2377500000000001  1.8556419600000000
  8.4903119902137618 18.0822385297074959  4.1796481096260916
  3.9967419854498214 12.7155959075661400  6.2217829736013641
  2.8895092887150700  8.9185823544764080  0.9701916116784608
  7.4253488048136642  8.3086969716647214  2.1429575619960790
  1.6690268082578170  5.0841849620100836  6.7917369357558854
 10.1874576793956191 14.9918516565079294  6.8551422133559807
  1.0437926599855347  9.9881597347486828  5.8549519174724747
  9.1378901156382106 13.3826785136021051  2.0148471252889593
  6.5957685175211891  2.0545094107867294  1.0400647644180583
  8.2913804460298230 11.3450991418823506  5.2459293663481086
  8.6717585830702948 19.2452493467078583 12.1928891552336207
  3.4031509996041396 17.1653316929664079  0.2877807573092226
  1.2489879982661269  2.9051620042674662  9.4168404718182614
  8.2835498781563643  6.9241055273205632 11.5097450884136805
  1.8931024925858628 15.2502399090873197  9.9773183857789860
  8.5170112643965243 13.2053171816118553  8.6805224041687588
  0.1211320360235941  9.5217782633946637  0.6962463070816006
  9.7433634552249924 10.3889435176576725  6.2017505001019098
 10.3476372021438010  0.8768799310998548 11.0198757439903474
  3.9492231730253362  0.3140320780169996 11.4795873449598123
  7.9595528168828018 11.8523032004789926 11.8982257344361848
  9.1007578803812645  5.9823181401777727  4.7621185118914076
  3.7935763300000001  6.3712080300000000  2.2908015000000002
  1.5409236700000000 13.9457919700000001  5.3823014999999996
  3.7935763300000001  3.7872919700000001  2.2908015000000002
  1.5409236700000000 16.5297080299999983  5.3823014999999996
  6.8754236700000000 13.9457919700000001  3.8921985000000001
  9.1280763300000007  6.3712080300000000  0.8006985000000000
  6.8754236700000000 16.5297080299999983  3.8921985000000001
  6.8754236700000000 13.9457919700000001 10.0751985000000008
  1.5409236700000000 16.5297080299999983 11.5653015000000003
  3.7935763300000001  3.7872919700000001  8.4738015000000004
  1.5409236700000000 13.9457919700000001 11.5653015000000003
  3.7935763300000001  6.3712080300000000  8.4738015000000004
  9.1280763300000007  3.7872919700000001  6.9836985000000000
  6.8754236700000000 16.5297080299999983 10.0751985000000008
  9.1280763300000007  6.3712080300000000  6.9836985000000000
  9.1280763300000007  3.7872919700000001  0.8006985000000000
