Al Cl Li O 
 1.0000000000000000
    10.6690000000000005    0.0000000000000000    0.0000000000000000
     0.0000000000000000   20.3170000000000002    0.0000000000000000
     0.0000000000000000    0.0000000000000000   12.3659999999999997
 Al  Cl  Li  O  
  24  56  16  16
Cartesian
  9.7591476799999999  7.8385017699999997  0.7023888000000000
  3.1208958800000000  5.0792500000000000  9.1415655000000005
  2.2136041199999998 15.2377500000000001 12.2330655000000004
  7.5481041199999996 15.2377500000000001  9.4074345000000008
  8.4553958799999993  5.0792500000000000  6.3159345000000000
  6.2443523200000000 17.9970017700000007  9.9768887999999993
  4.4246476799999996  7.8385017699999997  8.5721112000000002
  0.9098523200000000 12.4784982299999996 11.6636112000000001
  4.4246476799999996  2.3199982299999999  8.5721112000000002
  0.9098523200000000 17.9970017700000007 11.6636112000000001
  6.2443523200000000 12.4784982299999996  9.9768887999999993
  9.7591476799999999  7.8385017699999997  6.8853888000000003
  9.7591476799999999  2.3199982299999999  6.8853888000000003
  7.5481041199999996 15.2377500000000001  3.2244345000000001
  0.9098523200000000 17.9970017700000007  5.4806112000000002
  4.4246476799999996  2.3199982299999999  2.3891111999999999
  0.9098523200000000 12.4784982299999996  5.4806112000000002
  4.4246476799999996  7.8385017699999997  2.3891111999999999
  6.2443523200000000 12.4784982299999996  3.7938888000000000
  6.2443523200000000 17.9970017700000007  3.7938888000000000
  8.4553958799999993  5.0792500000000000  0.1329345000000000
  3.1208958800000000  5.0792500000000000  2.9585655000000002
  9.7591476799999999  2.3199982299999999  0.7023888000000000
  2.2136041199999998 15.2377500000000001  6.0500654999999997
  4.4818335200000003 17.9092323299999983  9.0138247200000006
  0.8526664800000000  7.7507323299999999 12.1053247200000005
  0.8526664800000000  7.7507323299999999  5.9223247199999998
  9.8163335200000006 17.9092323299999983  6.4436752799999999
  6.1871664800000001  2.4077676700000001  9.5351752800000007
  9.8163335200000006 12.5662676700000002  6.4436752799999999
  6.1871664800000001  7.7507323299999999  9.5351752800000007
  0.8526664800000000  2.4077676700000001 12.1053247200000005
  4.4818335200000003 12.5662676700000002  2.8308247199999999
  2.1674073500000000 19.2109425199999997  6.4744047900000004
  1.1537456600000000  5.0792500000000000  8.7498724499999998
  6.4882456599999996  5.0792500000000000  6.7076275499999998
  3.4062916300000001  5.0792500000000000 11.1301419599999996
  5.9714393000000001 18.6841227100000005 11.8397030399999998
 10.0320607000000006  1.6328772899999999  8.7482030399999999
  4.6975607000000004  8.5256227100000004  6.7092969599999996
  0.6369393000000000 11.7913772899999998  9.8007969599999996
  7.5019073499999998 11.2645574800000006  8.9830952100000001
  4.6975607000000004  1.6328772899999999  6.7092969599999996
  5.9714393000000001 11.7913772899999998 11.8397030399999998
 10.0320607000000006  8.5256227100000004  8.7482030399999999
  7.5019073499999998 19.2109425199999997  8.9830952100000001
  8.5015926499999992  1.1060574800000000 12.0745952100000000
  3.1670926499999998  9.0524425199999996  9.5659047899999994
  2.1674073500000000 11.2645574800000006  6.4744047900000004
  3.1670926499999998  1.1060574800000000  9.5659047899999994
  0.6369393000000000 18.6841227100000005  9.8007969599999996
  8.5015926499999992  9.0524425199999996 12.0745952100000000
  4.4818335200000003 12.5662676700000002  9.0138247200000006
  4.4818335200000003 17.9092323299999983  2.8308247199999999
  5.9714393000000001 11.7913772899999998  5.6567030400000000
  7.5019073499999998 19.2109425199999997  2.8000952099999998
  8.5015926499999992  1.1060574800000000  5.8915952100000002
  3.1670926499999998  9.0524425199999996  3.3829047900000000
  2.1674073500000000 11.2645574800000006  0.2914047900000000
  3.1670926499999998  1.1060574800000000  3.3829047900000000
  0.6369393000000000 18.6841227100000005  3.6177969600000002
  2.1674073500000000 19.2109425199999997  0.2914047900000000
  8.5015926499999992  9.0524425199999996  5.8915952100000002
  0.8526664800000000  2.4077676700000001  5.9223247199999998
  6.1871664800000001  7.7507323299999999  3.3521752800000000
  9.8163335200000006 12.5662676700000002  0.2606752800000000
  6.1871664800000001  2.4077676700000001  3.3521752800000000
  9.8163335200000006 17.9092323299999983  0.2606752800000000
  7.5019073499999998 11.2645574800000006  2.8000952099999998
  4.6975607000000004  1.6328772899999999  0.5262969600000000
 10.0320607000000006  8.5256227100000004  2.5652030400000001
  4.6975607000000004  8.5256227100000004  0.5262969600000000
 10.0320607000000006  1.6328772899999999  2.5652030400000001
  5.9714393000000001 18.6841227100000005  5.6567030400000000
  7.2627083700000004 15.2377500000000001  1.2358580400000001
  1.9282083699999999 15.2377500000000001  1.8556419600000000
  6.4882456599999996  5.0792500000000000  0.5246275500000001
  9.5152543400000003 15.2377500000000001  3.6161275499999999
  1.1537456600000000  5.0792500000000000  2.5668724500000000
  0.6369393000000000 11.7913772899999998  3.6177969600000002
  8.7041236105249009  4.5599590980054350  2.7677286248965571
  9.1980395486050934 16.4469380901853484  8.1027223325821431
  5.8770972870289073  1.7673100011201197  5.0509324328322602
  6.0357943238710954  5.4252133650321328 10.8651384112678837
 10.3369578380430429 15.2306762655210015  1.6086464454553948
  6.2111766396206596  7.0273060681132220  7.6782412927126220
  9.2531618300401313 14.3918105979193616 10.3505068185451687
  5.4141732514943621  0.1297417556709078  3.5495135548409715
  9.3016985975138802  0.5942170494131381 10.2120499374838545
  8.0307338274404749  3.2223799242393785 10.8928478082539488
  7.4413230245495878 13.8184200598540237  7.6497483030089688
  6.5444861114890411  3.3936286827526922 12.2567912308098510
  8.3201705208675509  2.1735256390473139  9.4108710423400783
  2.4923610959514892  0.8552073338419643  0.2210290769133952
  4.4780707442847989 12.9729316786912268  4.9166523252079140
  1.7457025482939186 16.1481456019523151  8.5780744040138881
  6.8754236700000000 16.5297080299999983 10.0751985000000008
  3.7935763300000001  6.3712080300000000  2.2908015000000002
  1.5409236700000000 13.9457919700000001  5.3823014999999996
  3.7935763300000001  3.7872919700000001  2.2908015000000002
  1.5409236700000000 16.5297080299999983  5.3823014999999996
  6.8754236700000000 13.9457919700000001  3.8921985000000001
  9.1280763300000007  3.7872919700000001  6.9836985000000000
  9.1280763300000007  6.3712080300000000  0.8006985000000000
  9.1280763300000007  6.3712080300000000  6.9836985000000000
  6.8754236700000000 13.9457919700000001 10.0751985000000008
  1.5409236700000000 16.5297080299999983 11.5653015000000003
  3.7935763300000001  3.7872919700000001  8.4738015000000004
  1.5409236700000000 13.9457919700000001 11.5653015000000003
  3.7935763300000001  6.3712080300000000  8.4738015000000004
  6.8754236700000000 16.5297080299999983  3.8921985000000001
  9.1280763300000007  3.7872919700000001  0.8006985000000000
