Al Cl Li O 
 1.0000000000000000
    10.6690000000000005    0.0000000000000000    0.0000000000000000
     0.0000000000000000   20.3170000000000002    0.0000000000000000
     0.0000000000000000    0.0000000000000000   12.3659999999999997
 Al  Cl  Li  O  
  24  61  21  16
Cartesian
  9.7591476799999999  7.8385017699999997  0.7023888000000000
  3.1208958800000000  5.0792500000000000  9.1415655000000005
  2.2136041199999998 15.2377500000000001 12.2330655000000004
  8.4553958799999993  5.0792500000000000  6.3159345000000000
  6.2443523200000000 17.9970017700000007  9.9768887999999993
  9.7591476799999999  2.3199982299999999  6.8853888000000003
  4.4246476799999996  7.8385017699999997  8.5721112000000002
  0.9098523200000000 12.4784982299999996 11.6636112000000001
  4.4246476799999996  2.3199982299999999  8.5721112000000002
  0.9098523200000000 17.9970017700000007 11.6636112000000001
  6.2443523200000000 12.4784982299999996  9.9768887999999993
  9.7591476799999999  7.8385017699999997  6.8853888000000003
  7.5481041199999996 15.2377500000000001  9.4074345000000008
  8.4553958799999993  5.0792500000000000  0.1329345000000000
  6.2443523200000000 12.4784982299999996  3.7938888000000000
  0.9098523200000000 17.9970017700000007  5.4806112000000002
  4.4246476799999996  2.3199982299999999  2.3891111999999999
  0.9098523200000000 12.4784982299999996  5.4806112000000002
  7.5481041199999996 15.2377500000000001  3.2244345000000001
  9.7591476799999999  2.3199982299999999  0.7023888000000000
  6.2443523200000000 17.9970017700000007  3.7938888000000000
  3.1208958800000000  5.0792500000000000  2.9585655000000002
  2.2136041199999998 15.2377500000000001  6.0500654999999997
  4.4246476799999996  7.8385017699999997  2.3891111999999999
  7.5019073499999998 11.2645574800000006  8.9830952100000001
  4.4818335200000003 12.5662676700000002  9.0138247200000006
  9.8163335200000006 17.9092323299999983  6.4436752799999999
  6.1871664800000001  2.4077676700000001  9.5351752800000007
  0.8526664800000000  7.7507323299999999  5.9223247199999998
  6.1871664800000001  7.7507323299999999  9.5351752800000007
  0.8526664800000000  2.4077676700000001 12.1053247200000005
  4.4818335200000003 17.9092323299999983  9.0138247200000006
  8.5015926499999992  9.0524425199999996 12.0745952100000000
  0.8526664800000000  7.7507323299999999 12.1053247200000005
  4.4818335200000003 12.5662676700000002  2.8308247199999999
  2.1674073500000000 11.2645574800000006  6.4744047900000004
  1.1537456600000000  5.0792500000000000  8.7498724499999998
  9.5152543400000003 15.2377500000000001  9.7991275499999997
  6.4882456599999996  5.0792500000000000  6.7076275499999998
  3.4062916300000001  5.0792500000000000 11.1301419599999996
  1.9282083699999999 15.2377500000000001  8.0386419599999996
  7.2627083700000004 15.2377500000000001  7.4188580399999999
  5.9714393000000001 18.6841227100000005 11.8397030399999998
 10.0320607000000006  1.6328772899999999  8.7482030399999999
  4.6975607000000004  8.5256227100000004  6.7092969599999996
  0.6369393000000000 11.7913772899999998  9.8007969599999996
  4.6975607000000004  1.6328772899999999  6.7092969599999996
  0.6369393000000000 18.6841227100000005  9.8007969599999996
  5.9714393000000001 11.7913772899999998 11.8397030399999998
 10.0320607000000006  8.5256227100000004  8.7482030399999999
  7.5019073499999998 19.2109425199999997  8.9830952100000001
  8.5015926499999992  1.1060574800000000 12.0745952100000000
  3.1670926499999998  9.0524425199999996  9.5659047899999994
  3.1670926499999998  1.1060574800000000  9.5659047899999994
  2.1674073500000000 19.2109425199999997  6.4744047900000004
  9.8163335200000006 12.5662676700000002  6.4436752799999999
  0.8526664800000000  2.4077676700000001  5.9223247199999998
  0.6369393000000000 18.6841227100000005  3.6177969600000002
  5.9714393000000001 11.7913772899999998  5.6567030400000000
  7.5019073499999998 19.2109425199999997  2.8000952099999998
  8.5015926499999992  1.1060574800000000  5.8915952100000002
  3.1670926499999998  9.0524425199999996  3.3829047900000000
  2.1674073500000000 11.2645574800000006  0.2914047900000000
  3.1670926499999998  1.1060574800000000  3.3829047900000000
  2.1674073500000000 19.2109425199999997  0.2914047900000000
  7.5019073499999998 11.2645574800000006  2.8000952099999998
  8.5015926499999992  9.0524425199999996  5.8915952100000002
  4.4818335200000003 17.9092323299999983  2.8308247199999999
  6.1871664800000001  7.7507323299999999  3.3521752800000000
  9.8163335200000006 12.5662676700000002  0.2606752800000000
  6.1871664800000001  2.4077676700000001  3.3521752800000000
  9.8163335200000006 17.9092323299999983  0.2606752800000000
  4.6975607000000004  1.6328772899999999  0.5262969600000000
  0.6369393000000000 11.7913772899999998  3.6177969600000002
 10.0320607000000006  8.5256227100000004  2.5652030400000001
 10.0320607000000006  1.6328772899999999  2.5652030400000001
  4.6975607000000004  8.5256227100000004  0.5262969600000000
  1.1537456600000000  5.0792500000000000  2.5668724500000000
  9.5152543400000003 15.2377500000000001  3.6161275499999999
  6.4882456599999996  5.0792500000000000  0.5246275500000001
  4.1807543400000000 15.2377500000000001  5.6583724499999999
  7.2627083700000004 15.2377500000000001  1.2358580400000001
  8.7407916300000004  5.0792500000000000  4.3273580400000000
  5.9714393000000001 18.6841227100000005  5.6567030400000000
  1.9282083699999999 15.2377500000000001  1.8556419600000000
 10.3958182029903305 20.0368436955920934  8.6334677555681676
  2.6389568974981761  9.1537051970951708  1.5971853277633870
  7.3053968799773381  3.3038883566701567 11.2645255634508548
  6.5445267254389421  8.4974437683165043 11.5341204251557272
  4.0164876612219116 16.4680120214944985 12.2086566151086036
 10.3480167102840017 17.1093301613481934 10.3667727624579307
  8.2398649214275359 10.5681618520923699 10.5380764329390662
  3.7404186649075832 11.9853576438255800  4.8504898617032897
  7.9747674389490486  0.7452926331282775  3.1216352537581606
  6.5961601574567279  7.4952184151390657  5.7197042997025065
  7.3658224266466990  0.7987047451516071  9.8855089929092212
  1.3661210558404742  3.0862070240892843  1.7167368169826056
  2.5621136067445418  1.5413152371837249  1.5937266411470883
  2.7552093787615868  9.3282611594927545 12.1190828259802093
  3.7699149208099576 11.8581412244741689  0.9612665207090024
  7.6107267318022904 18.1879173212908292  6.3274032492023276
  2.9593798412257049  3.8220576021076584  5.7340944754878196
  9.5010355582139390 12.0600178788576073  8.3977792785407583
  5.6300431328417337 20.1740657627558235  0.9125683195179423
  5.6824936158086423  4.9262732223468024  3.3294617939200450
  0.4848674318630141  5.7083291229453437 11.7527884120907249
  3.7935763300000001  6.3712080300000000  2.2908015000000002
  1.5409236700000000 13.9457919700000001  5.3823014999999996
  3.7935763300000001  3.7872919700000001  2.2908015000000002
  1.5409236700000000 16.5297080299999983  5.3823014999999996
  6.8754236700000000 13.9457919700000001  3.8921985000000001
  9.1280763300000007  6.3712080300000000  0.8006985000000000
  6.8754236700000000 16.5297080299999983  3.8921985000000001
  6.8754236700000000 13.9457919700000001 10.0751985000000008
  1.5409236700000000 16.5297080299999983 11.5653015000000003
  3.7935763300000001  3.7872919700000001  8.4738015000000004
  1.5409236700000000 13.9457919700000001 11.5653015000000003
  3.7935763300000001  6.3712080300000000  8.4738015000000004
  9.1280763300000007  3.7872919700000001  6.9836985000000000
  6.8754236700000000 16.5297080299999983 10.0751985000000008
  9.1280763300000007  6.3712080300000000  6.9836985000000000
  9.1280763300000007  3.7872919700000001  0.8006985000000000
