Al Cl Li O 
 1.0000000000000000
    10.6690000000000005    0.0000000000000000    0.0000000000000000
     0.0000000000000000   20.3170000000000002    0.0000000000000000
     0.0000000000000000    0.0000000000000000   12.3659999999999997
 Al  Cl  Li  O  
  24  59  19  16
Cartesian
  9.7591476799999999  7.8385017699999997  0.7023888000000000
  3.1208958800000000  5.0792500000000000  9.1415655000000005
  2.2136041199999998 15.2377500000000001 12.2330655000000004
  7.5481041199999996 15.2377500000000001  9.4074345000000008
  6.2443523200000000 17.9970017700000007  9.9768887999999993
  9.7591476799999999  2.3199982299999999  6.8853888000000003
  4.4246476799999996  7.8385017699999997  8.5721112000000002
  0.9098523200000000 12.4784982299999996 11.6636112000000001
  4.4246476799999996  2.3199982299999999  8.5721112000000002
  0.9098523200000000 17.9970017700000007 11.6636112000000001
  6.2443523200000000 12.4784982299999996  9.9768887999999993
  9.7591476799999999  7.8385017699999997  6.8853888000000003
  8.4553958799999993  5.0792500000000000  6.3159345000000000
  8.4553958799999993  5.0792500000000000  0.1329345000000000
  0.9098523200000000 17.9970017700000007  5.4806112000000002
  4.4246476799999996  2.3199982299999999  2.3891111999999999
  0.9098523200000000 12.4784982299999996  5.4806112000000002
  4.4246476799999996  7.8385017699999997  2.3891111999999999
  6.2443523200000000 12.4784982299999996  3.7938888000000000
  6.2443523200000000 17.9970017700000007  3.7938888000000000
  3.1208958800000000  5.0792500000000000  2.9585655000000002
  2.2136041199999998 15.2377500000000001  6.0500654999999997
  9.7591476799999999  2.3199982299999999  0.7023888000000000
  7.5481041199999996 15.2377500000000001  3.2244345000000001
  8.5015926499999992  9.0524425199999996 12.0745952100000000
  0.8526664800000000  7.7507323299999999 12.1053247200000005
  4.4818335200000003 12.5662676700000002  9.0138247200000006
  9.8163335200000006 17.9092323299999983  6.4436752799999999
  0.8526664800000000  7.7507323299999999  5.9223247199999998
  9.8163335200000006 12.5662676700000002  6.4436752799999999
  6.1871664800000001  7.7507323299999999  9.5351752800000007
  0.8526664800000000  2.4077676700000001 12.1053247200000005
  4.4818335200000003 17.9092323299999983  9.0138247200000006
  4.4818335200000003 12.5662676700000002  2.8308247199999999
  3.1670926499999998  1.1060574800000000  9.5659047899999994
  1.1537456600000000  5.0792500000000000  8.7498724499999998
  9.5152543400000003 15.2377500000000001  9.7991275499999997
  6.4882456599999996  5.0792500000000000  6.7076275499999998
  7.2627083700000004 15.2377500000000001  7.4188580399999999
  8.7407916300000004  5.0792500000000000 10.5103580399999998
  5.9714393000000001 18.6841227100000005 11.8397030399999998
 10.0320607000000006  1.6328772899999999  8.7482030399999999
  4.6975607000000004  8.5256227100000004  6.7092969599999996
  0.6369393000000000 11.7913772899999998  9.8007969599999996
  4.6975607000000004  1.6328772899999999  6.7092969599999996
  0.6369393000000000 18.6841227100000005  9.8007969599999996
  5.9714393000000001 11.7913772899999998 11.8397030399999998
 10.0320607000000006  8.5256227100000004  8.7482030399999999
  7.5019073499999998 19.2109425199999997  8.9830952100000001
  8.5015926499999992  1.1060574800000000 12.0745952100000000
  3.1670926499999998  9.0524425199999996  9.5659047899999994
  2.1674073500000000 11.2645574800000006  6.4744047900000004
  2.1674073500000000 19.2109425199999997  6.4744047900000004
  7.5019073499999998 11.2645574800000006  8.9830952100000001
  6.1871664800000001  2.4077676700000001  9.5351752800000007
  0.8526664800000000  2.4077676700000001  5.9223247199999998
  5.9714393000000001 11.7913772899999998  5.6567030400000000
  7.5019073499999998 19.2109425199999997  2.8000952099999998
  8.5015926499999992  1.1060574800000000  5.8915952100000002
  3.1670926499999998  9.0524425199999996  3.3829047900000000
  2.1674073500000000 11.2645574800000006  0.2914047900000000
  3.1670926499999998  1.1060574800000000  3.3829047900000000
  0.6369393000000000 18.6841227100000005  3.6177969600000002
  2.1674073500000000 19.2109425199999997  0.2914047900000000
  8.5015926499999992  9.0524425199999996  5.8915952100000002
  4.4818335200000003 17.9092323299999983  2.8308247199999999
  6.1871664800000001  7.7507323299999999  3.3521752800000000
  9.8163335200000006 12.5662676700000002  0.2606752800000000
  6.1871664800000001  2.4077676700000001  3.3521752800000000
  9.8163335200000006 17.9092323299999983  0.2606752800000000
  7.5019073499999998 11.2645574800000006  2.8000952099999998
  4.6975607000000004  1.6328772899999999  0.5262969600000000
 10.0320607000000006  8.5256227100000004  2.5652030400000001
  4.6975607000000004  8.5256227100000004  0.5262969600000000
  0.6369393000000000 11.7913772899999998  3.6177969600000002
  1.1537456600000000  5.0792500000000000  2.5668724500000000
  9.5152543400000003 15.2377500000000001  3.6161275499999999
  3.4062916300000001  5.0792500000000000  4.9471419599999997
  4.1807543400000000 15.2377500000000001  5.6583724499999999
  8.7407916300000004  5.0792500000000000  4.3273580400000000
  5.9714393000000001 18.6841227100000005  5.6567030400000000
 10.0320607000000006  1.6328772899999999  2.5652030400000001
  1.9282083699999999 15.2377500000000001  1.8556419600000000
  3.0416803547946549  3.5224313356035339 11.0894012409303730
  2.7167611456745968 13.8460908074235718  9.4009777153958645
  0.8560138324640607 10.6564979018988648  5.0749671625541541
  2.5862694351364910  2.3331397682263981  7.5509274448332286
  3.0793993725202888 11.8090169446432132  1.9088493370807857
 10.5618857193683269  6.5492630683514470 10.0149073974384137
  0.1397047573409316 13.4810887872635092  2.2015927663113461
  3.6496701770500168 16.6854846590212844  1.3680720591880926
  9.8139395715077420  7.0367115675332350  4.2904232946487513
  4.5250501321251564 14.9623375351874941 11.5543825046336366
  6.3548697235450913  9.5810134227735677  5.0928247443451227
  8.4135436465545190  3.0815785315303059  3.8547550903597494
  5.7991654752251449 18.4167938784666987  7.7193270574724258
  2.5309726410313251  2.0679144962287430  1.8902561151534498
  7.8684008160829055  9.1877119050582117  2.7774632404758171
  3.7991959686041219 20.0430303097269693  7.4910114161672663
  2.0344472917606589  0.7425796016697437  5.8375798432302508
  2.2394827727368045 18.2457689985669802  2.5367567942005005
  3.8737250202770381 13.1231005921341417  7.0582445155357645
  6.8754236700000000 16.5297080299999983 10.0751985000000008
  3.7935763300000001  6.3712080300000000  2.2908015000000002
  1.5409236700000000 13.9457919700000001  5.3823014999999996
  3.7935763300000001  3.7872919700000001  2.2908015000000002
  1.5409236700000000 16.5297080299999983  5.3823014999999996
  6.8754236700000000 13.9457919700000001  3.8921985000000001
  9.1280763300000007  6.3712080300000000  0.8006985000000000
  6.8754236700000000 16.5297080299999983  3.8921985000000001
  6.8754236700000000 13.9457919700000001 10.0751985000000008
  1.5409236700000000 16.5297080299999983 11.5653015000000003
  3.7935763300000001  3.7872919700000001  8.4738015000000004
  1.5409236700000000 13.9457919700000001 11.5653015000000003
  3.7935763300000001  6.3712080300000000  8.4738015000000004
  9.1280763300000007  3.7872919700000001  6.9836985000000000
  9.1280763300000007  6.3712080300000000  6.9836985000000000
  9.1280763300000007  3.7872919700000001  0.8006985000000000
