Al Cl Li O 
 1.0000000000000000
    10.6690000000000005    0.0000000000000000    0.0000000000000000
     0.0000000000000000   20.3170000000000002    0.0000000000000000
     0.0000000000000000    0.0000000000000000   12.3659999999999997
 Al  Cl  Li  O  
  24  64  24  16
Cartesian
  9.7591476799999999  7.8385017699999997  0.7023888000000000
  2.2136041199999998 15.2377500000000001 12.2330655000000004
  7.5481041199999996 15.2377500000000001  9.4074345000000008
  8.4553958799999993  5.0792500000000000  6.3159345000000000
  6.2443523200000000 17.9970017700000007  9.9768887999999993
  9.7591476799999999  2.3199982299999999  6.8853888000000003
  4.4246476799999996  7.8385017699999997  8.5721112000000002
  0.9098523200000000 12.4784982299999996 11.6636112000000001
  4.4246476799999996  2.3199982299999999  8.5721112000000002
  0.9098523200000000 17.9970017700000007 11.6636112000000001
  6.2443523200000000 12.4784982299999996  9.9768887999999993
  9.7591476799999999  7.8385017699999997  6.8853888000000003
  3.1208958800000000  5.0792500000000000  9.1415655000000005
  6.2443523200000000 17.9970017700000007  3.7938888000000000
  6.2443523200000000 12.4784982299999996  3.7938888000000000
  0.9098523200000000 17.9970017700000007  5.4806112000000002
  4.4246476799999996  2.3199982299999999  2.3891111999999999
  0.9098523200000000 12.4784982299999996  5.4806112000000002
  8.4553958799999993  5.0792500000000000  0.1329345000000000
  9.7591476799999999  2.3199982299999999  0.7023888000000000
  3.1208958800000000  5.0792500000000000  2.9585655000000002
  2.2136041199999998 15.2377500000000001  6.0500654999999997
  7.5481041199999996 15.2377500000000001  3.2244345000000001
  4.4246476799999996  7.8385017699999997  2.3891111999999999
  2.1674073500000000 19.2109425199999997  6.4744047900000004
  4.4818335200000003 12.5662676700000002  9.0138247200000006
  9.8163335200000006 17.9092323299999983  6.4436752799999999
  6.1871664800000001  2.4077676700000001  9.5351752800000007
  9.8163335200000006 12.5662676700000002  6.4436752799999999
  6.1871664800000001  7.7507323299999999  9.5351752800000007
  0.8526664800000000  7.7507323299999999  5.9223247199999998
  4.4818335200000003 17.9092323299999983  9.0138247200000006
  8.5015926499999992  9.0524425199999996 12.0745952100000000
  7.5019073499999998 11.2645574800000006  8.9830952100000001
  0.8526664800000000  7.7507323299999999 12.1053247200000005
  4.4818335200000003 12.5662676700000002  2.8308247199999999
  3.1670926499999998  9.0524425199999996  9.5659047899999994
  1.1537456600000000  5.0792500000000000  8.7498724499999998
  4.1807543400000000 15.2377500000000001 11.8413724499999997
  9.5152543400000003 15.2377500000000001  9.7991275499999997
  6.4882456599999996  5.0792500000000000  6.7076275499999998
  3.4062916300000001  5.0792500000000000 11.1301419599999996
  1.9282083699999999 15.2377500000000001  8.0386419599999996
  7.2627083700000004 15.2377500000000001  7.4188580399999999
  8.7407916300000004  5.0792500000000000 10.5103580399999998
  2.1674073500000000 11.2645574800000006  6.4744047900000004
  5.9714393000000001 18.6841227100000005 11.8397030399999998
  4.6975607000000004  8.5256227100000004  6.7092969599999996
  0.6369393000000000 11.7913772899999998  9.8007969599999996
  4.6975607000000004  1.6328772899999999  6.7092969599999996
  0.6369393000000000 18.6841227100000005  9.8007969599999996
  5.9714393000000001 11.7913772899999998 11.8397030399999998
 10.0320607000000006  8.5256227100000004  8.7482030399999999
  7.5019073499999998 19.2109425199999997  8.9830952100000001
  8.5015926499999992  1.1060574800000000 12.0745952100000000
 10.0320607000000006  1.6328772899999999  8.7482030399999999
  3.1670926499999998  1.1060574800000000  9.5659047899999994
  0.8526664800000000  2.4077676700000001 12.1053247200000005
  6.1871664800000001  7.7507323299999999  3.3521752800000000
  0.6369393000000000 18.6841227100000005  3.6177969600000002
  5.9714393000000001 11.7913772899999998  5.6567030400000000
 10.0320607000000006  8.5256227100000004  2.5652030400000001
  8.5015926499999992  1.1060574800000000  5.8915952100000002
  3.1670926499999998  9.0524425199999996  3.3829047900000000
  2.1674073500000000 11.2645574800000006  0.2914047900000000
  3.1670926499999998  1.1060574800000000  3.3829047900000000
  2.1674073500000000 19.2109425199999997  0.2914047900000000
  7.5019073499999998 11.2645574800000006  2.8000952099999998
  8.5015926499999992  9.0524425199999996  5.8915952100000002
  4.4818335200000003 17.9092323299999983  2.8308247199999999
  0.8526664800000000  2.4077676700000001  5.9223247199999998
  9.8163335200000006 12.5662676700000002  0.2606752800000000
  6.1871664800000001  2.4077676700000001  3.3521752800000000
  9.8163335200000006 17.9092323299999983  0.2606752800000000
  4.6975607000000004  1.6328772899999999  0.5262969600000000
  0.6369393000000000 11.7913772899999998  3.6177969600000002
  7.5019073499999998 19.2109425199999997  2.8000952099999998
 10.0320607000000006  1.6328772899999999  2.5652030400000001
  4.6975607000000004  8.5256227100000004  0.5262969600000000
  1.1537456600000000  5.0792500000000000  2.5668724500000000
  9.5152543400000003 15.2377500000000001  3.6161275499999999
  6.4882456599999996  5.0792500000000000  0.5246275500000001
  3.4062916300000001  5.0792500000000000  4.9471419599999997
  4.1807543400000000 15.2377500000000001  5.6583724499999999
  1.9282083699999999 15.2377500000000001  1.8556419600000000
  7.2627083700000004 15.2377500000000001  1.2358580400000001
  8.7407916300000004  5.0792500000000000  4.3273580400000000
  5.9714393000000001 18.6841227100000005  5.6567030400000000
  3.0389632345132020  0.7494321094020429  7.5378725539954043
  5.9882664208689560 15.6637401951368158  6.1062763446420556
  1.1510936345915652  0.6385467655973798  7.8698511456879086
  3.3538639621033295 10.3326307323932660 11.2229670165700668
  8.6145790154453827 18.2058869405456107  3.9324309715020687
  3.8795642277846878 19.7436965746417599 11.9016232492541469
  3.8062012424939042  5.7077464333185146  6.7109797643349003
  5.2219714994013202 20.0254602761650737  2.9932554875112141
  6.4699916375081656  0.1868564976950645  1.2547970990813531
  9.5172446971846227 12.8228434643863896  9.8286365795960240
  0.9994160979579186  7.4708819707585112  3.2794924787522168
  5.8544407987521074 14.0572347315224491  8.0621529350091574
  6.7591284841079862 10.8853342563468676  1.1165232964928131
  9.4643250604845370 15.8447314651893443  7.9393633363439227
  9.6065602518755728 12.8627223074209844  4.1924423961082322
  3.6388368993552080  2.3054415310450480 11.4347612836327066
  8.2698920924397310 19.0877999957596316 11.0654350153883048
  7.7693402233399302  7.4722499074570674  7.8190939011202039
  4.8658106616115564 15.9524200076218570  2.4691659901702763
 10.0337526364612426 19.3809668989615673 11.3132130494660661
  1.9567427156262855  6.1812896502089281  6.4891380335642532
  0.6196940582225201 17.5981007537093568  7.4333882352165199
  0.2594270458571810 13.1140606359459291  2.1901506615475670
  1.4882599992966343  5.9355028242900270  4.5304305541697918
  3.7935763300000001  6.3712080300000000  2.2908015000000002
  1.5409236700000000 13.9457919700000001  5.3823014999999996
  3.7935763300000001  3.7872919700000001  2.2908015000000002
  1.5409236700000000 16.5297080299999983  5.3823014999999996
  6.8754236700000000 13.9457919700000001  3.8921985000000001
  9.1280763300000007  6.3712080300000000  0.8006985000000000
  9.1280763300000007  6.3712080300000000  6.9836985000000000
  6.8754236700000000 13.9457919700000001 10.0751985000000008
  1.5409236700000000 16.5297080299999983 11.5653015000000003
  3.7935763300000001  3.7872919700000001  8.4738015000000004
  1.5409236700000000 13.9457919700000001 11.5653015000000003
  3.7935763300000001  6.3712080300000000  8.4738015000000004
  9.1280763300000007  3.7872919700000001  6.9836985000000000
  6.8754236700000000 16.5297080299999983 10.0751985000000008
  6.8754236700000000 16.5297080299999983  3.8921985000000001
  9.1280763300000007  3.7872919700000001  0.8006985000000000
