Al Cl Li O 
 1.0000000000000000
    10.6690000000000005    0.0000000000000000    0.0000000000000000
     0.0000000000000000   20.3170000000000002    0.0000000000000000
     0.0000000000000000    0.0000000000000000   12.3659999999999997
 Al  Cl  Li  O  
  24  58  18  16
Cartesian
  9.7591476799999999  7.8385017699999997  0.7023888000000000
  3.1208958800000000  5.0792500000000000  9.1415655000000005
  2.2136041199999998 15.2377500000000001 12.2330655000000004
  8.4553958799999993  5.0792500000000000  6.3159345000000000
  6.2443523200000000 17.9970017700000007  9.9768887999999993
  9.7591476799999999  2.3199982299999999  6.8853888000000003
  4.4246476799999996  7.8385017699999997  8.5721112000000002
  0.9098523200000000 12.4784982299999996 11.6636112000000001
  4.4246476799999996  2.3199982299999999  8.5721112000000002
  0.9098523200000000 17.9970017700000007 11.6636112000000001
  6.2443523200000000 12.4784982299999996  9.9768887999999993
  9.7591476799999999  7.8385017699999997  6.8853888000000003
  7.5481041199999996 15.2377500000000001  9.4074345000000008
  4.4246476799999996  7.8385017699999997  2.3891111999999999
  6.2443523200000000 12.4784982299999996  3.7938888000000000
  0.9098523200000000 17.9970017700000007  5.4806112000000002
  4.4246476799999996  2.3199982299999999  2.3891111999999999
  0.9098523200000000 12.4784982299999996  5.4806112000000002
  9.7591476799999999  2.3199982299999999  0.7023888000000000
  2.2136041199999998 15.2377500000000001  6.0500654999999997
  7.5481041199999996 15.2377500000000001  3.2244345000000001
  8.4553958799999993  5.0792500000000000  0.1329345000000000
  6.2443523200000000 17.9970017700000007  3.7938888000000000
  3.1208958800000000  5.0792500000000000  2.9585655000000002
  7.5019073499999998 11.2645574800000006  8.9830952100000001
  4.4818335200000003 12.5662676700000002  9.0138247200000006
  9.8163335200000006 17.9092323299999983  6.4436752799999999
  6.1871664800000001  2.4077676700000001  9.5351752800000007
  0.8526664800000000  7.7507323299999999  5.9223247199999998
  6.1871664800000001  7.7507323299999999  9.5351752800000007
  0.8526664800000000  2.4077676700000001 12.1053247200000005
  4.4818335200000003 17.9092323299999983  9.0138247200000006
  8.5015926499999992  9.0524425199999996 12.0745952100000000
  0.8526664800000000  7.7507323299999999 12.1053247200000005
  4.4818335200000003 12.5662676700000002  2.8308247199999999
  2.1674073500000000 11.2645574800000006  6.4744047900000004
  1.1537456600000000  5.0792500000000000  8.7498724499999998
  4.1807543400000000 15.2377500000000001 11.8413724499999997
  9.5152543400000003 15.2377500000000001  9.7991275499999997
  3.4062916300000001  5.0792500000000000 11.1301419599999996
  1.9282083699999999 15.2377500000000001  8.0386419599999996
  8.7407916300000004  5.0792500000000000 10.5103580399999998
  5.9714393000000001 18.6841227100000005 11.8397030399999998
 10.0320607000000006  1.6328772899999999  8.7482030399999999
  4.6975607000000004  8.5256227100000004  6.7092969599999996
  0.6369393000000000 11.7913772899999998  9.8007969599999996
  4.6975607000000004  1.6328772899999999  6.7092969599999996
  0.6369393000000000 18.6841227100000005  9.8007969599999996
  5.9714393000000001 11.7913772899999998 11.8397030399999998
 10.0320607000000006  8.5256227100000004  8.7482030399999999
  7.5019073499999998 19.2109425199999997  8.9830952100000001
  8.5015926499999992  1.1060574800000000 12.0745952100000000
  3.1670926499999998  9.0524425199999996  9.5659047899999994
  3.1670926499999998  1.1060574800000000  9.5659047899999994
  2.1674073500000000 19.2109425199999997  6.4744047900000004
  9.8163335200000006 12.5662676700000002  6.4436752799999999
  0.8526664800000000  2.4077676700000001  5.9223247199999998
  9.8163335200000006 17.9092323299999983  0.2606752800000000
  6.1871664800000001  2.4077676700000001  3.3521752800000000
  9.8163335200000006 12.5662676700000002  0.2606752800000000
  6.1871664800000001  7.7507323299999999  3.3521752800000000
  4.4818335200000003 17.9092323299999983  2.8308247199999999
  8.5015926499999992  9.0524425199999996  5.8915952100000002
  7.5019073499999998 11.2645574800000006  2.8000952099999998
  2.1674073500000000 19.2109425199999997  0.2914047900000000
  3.1670926499999998  1.1060574800000000  3.3829047900000000
  2.1674073500000000 11.2645574800000006  0.2914047900000000
  3.1670926499999998  9.0524425199999996  3.3829047900000000
  8.5015926499999992  1.1060574800000000  5.8915952100000002
 10.0320607000000006  8.5256227100000004  2.5652030400000001
  5.9714393000000001 11.7913772899999998  5.6567030400000000
  0.6369393000000000 18.6841227100000005  3.6177969600000002
  7.5019073499999998 19.2109425199999997  2.8000952099999998
  0.6369393000000000 11.7913772899999998  3.6177969600000002
  4.6975607000000004  8.5256227100000004  0.5262969600000000
 10.0320607000000006  1.6328772899999999  2.5652030400000001
  5.9714393000000001 18.6841227100000005  5.6567030400000000
  3.4062916300000001  5.0792500000000000  4.9471419599999997
  6.4882456599999996  5.0792500000000000  0.5246275500000001
  9.5152543400000003 15.2377500000000001  3.6161275499999999
  1.1537456600000000  5.0792500000000000  2.5668724500000000
  4.6975607000000004  1.6328772899999999  0.5262969600000000
  1.9048929994576853 13.2618426732265391  2.9453682704238200
  9.1294256182259623 16.8675769884075670  4.9115715272618123
  7.1278003220722246  4.1646659299632347  3.6250648324076900
  9.5630068478018266  0.2641600799676240  1.0573984925463522
  8.7213053601874257  6.9447031344457457  3.2080301778113629
  6.6590446978424112  8.3180165375694326  6.8266154384155877
  9.4524965959318816 12.5124923942998816  2.8807768648034351
  8.1469102178904880  2.8466793920470166 10.7394749899535888
  4.7584355916884302  3.7613457152142353  6.7011471152807767
  6.2971709848262902  7.3339066641305246  1.1325039187571579
  5.0789817410621945 13.4838070666729219 11.5848365564899574
  0.5010798995230623  3.3783792030172655  9.1265237007284963
  6.1508542772615717  5.5679799187019645  6.8529651791103010
  7.6387077095728850 13.3873577277885456  0.3350690432980769
  2.4539642850225039  2.4495574183369735  0.9516032913468004
  4.3607848714455910  0.5157745879512265  1.9309830190303099
  8.5222183424692357 20.2750273237058174  4.3369023098758479
  9.3321921458677242 10.7464157520308667 11.6125111598104738
  9.1280763300000007  3.7872919700000001  6.9836985000000000
  3.7935763300000001  6.3712080300000000  2.2908015000000002
  1.5409236700000000 13.9457919700000001  5.3823014999999996
  3.7935763300000001  3.7872919700000001  2.2908015000000002
  1.5409236700000000 16.5297080299999983  5.3823014999999996
  6.8754236700000000 13.9457919700000001  3.8921985000000001
  6.8754236700000000 16.5297080299999983 10.0751985000000008
  9.1280763300000007  6.3712080300000000  0.8006985000000000
  9.1280763300000007  6.3712080300000000  6.9836985000000000
  6.8754236700000000 13.9457919700000001 10.0751985000000008
  1.5409236700000000 16.5297080299999983 11.5653015000000003
  3.7935763300000001  3.7872919700000001  8.4738015000000004
  1.5409236700000000 13.9457919700000001 11.5653015000000003
  3.7935763300000001  6.3712080300000000  8.4738015000000004
  6.8754236700000000 16.5297080299999983  3.8921985000000001
  9.1280763300000007  3.7872919700000001  0.8006985000000000
