Al Cl Li O 
 1.0000000000000000
    10.6690000000000005    0.0000000000000000    0.0000000000000000
     0.0000000000000000   20.3170000000000002    0.0000000000000000
     0.0000000000000000    0.0000000000000000   12.3659999999999997
 Al  Cl  Li  O  
  24  53  13  16
Cartesian
  9.7591476799999999  7.8385017699999997  0.7023888000000000
  3.1208958800000000  5.0792500000000000  9.1415655000000005
  2.2136041199999998 15.2377500000000001 12.2330655000000004
  7.5481041199999996 15.2377500000000001  9.4074345000000008
  8.4553958799999993  5.0792500000000000  6.3159345000000000
  6.2443523200000000 17.9970017700000007  9.9768887999999993
  4.4246476799999996  7.8385017699999997  8.5721112000000002
  0.9098523200000000 12.4784982299999996 11.6636112000000001
  4.4246476799999996  2.3199982299999999  8.5721112000000002
  0.9098523200000000 17.9970017700000007 11.6636112000000001
  6.2443523200000000 12.4784982299999996  9.9768887999999993
  9.7591476799999999  7.8385017699999997  6.8853888000000003
  9.7591476799999999  2.3199982299999999  6.8853888000000003
  9.7591476799999999  2.3199982299999999  0.7023888000000000
  0.9098523200000000 17.9970017700000007  5.4806112000000002
  4.4246476799999996  2.3199982299999999  2.3891111999999999
  0.9098523200000000 12.4784982299999996  5.4806112000000002
  4.4246476799999996  7.8385017699999997  2.3891111999999999
  6.2443523200000000 12.4784982299999996  3.7938888000000000
  2.2136041199999998 15.2377500000000001  6.0500654999999997
  7.5481041199999996 15.2377500000000001  3.2244345000000001
  8.4553958799999993  5.0792500000000000  0.1329345000000000
  3.1208958800000000  5.0792500000000000  2.9585655000000002
  6.2443523200000000 17.9970017700000007  3.7938888000000000
  4.4818335200000003 17.9092323299999983  9.0138247200000006
  0.8526664800000000  7.7507323299999999 12.1053247200000005
  0.8526664800000000  7.7507323299999999  5.9223247199999998
  9.8163335200000006 17.9092323299999983  6.4436752799999999
  6.1871664800000001  2.4077676700000001  9.5351752800000007
  9.8163335200000006 12.5662676700000002  6.4436752799999999
  6.1871664800000001  7.7507323299999999  9.5351752800000007
  0.8526664800000000  2.4077676700000001 12.1053247200000005
  4.4818335200000003 12.5662676700000002  2.8308247199999999
  2.1674073500000000 19.2109425199999997  6.4744047900000004
  1.1537456600000000  5.0792500000000000  8.7498724499999998
  4.1807543400000000 15.2377500000000001 11.8413724499999997
  8.7407916300000004  5.0792500000000000 10.5103580399999998
  5.9714393000000001 18.6841227100000005 11.8397030399999998
 10.0320607000000006  1.6328772899999999  8.7482030399999999
  4.6975607000000004  8.5256227100000004  6.7092969599999996
  0.6369393000000000 11.7913772899999998  9.8007969599999996
  7.5019073499999998 11.2645574800000006  8.9830952100000001
  4.6975607000000004  1.6328772899999999  6.7092969599999996
  5.9714393000000001 11.7913772899999998 11.8397030399999998
 10.0320607000000006  8.5256227100000004  8.7482030399999999
  7.5019073499999998 19.2109425199999997  8.9830952100000001
  8.5015926499999992  1.1060574800000000 12.0745952100000000
  3.1670926499999998  9.0524425199999996  9.5659047899999994
  2.1674073500000000 11.2645574800000006  6.4744047900000004
  3.1670926499999998  1.1060574800000000  9.5659047899999994
  0.6369393000000000 18.6841227100000005  9.8007969599999996
  8.5015926499999992  9.0524425199999996 12.0745952100000000
  4.4818335200000003 12.5662676700000002  9.0138247200000006
  4.4818335200000003 17.9092323299999983  2.8308247199999999
  9.8163335200000006 17.9092323299999983  0.2606752800000000
  6.1871664800000001  2.4077676700000001  3.3521752800000000
  9.8163335200000006 12.5662676700000002  0.2606752800000000
  6.1871664800000001  7.7507323299999999  3.3521752800000000
  0.8526664800000000  2.4077676700000001  5.9223247199999998
  8.5015926499999992  9.0524425199999996  5.8915952100000002
  7.5019073499999998 11.2645574800000006  2.8000952099999998
  2.1674073500000000 19.2109425199999997  0.2914047900000000
  3.1670926499999998  1.1060574800000000  3.3829047900000000
  2.1674073500000000 11.2645574800000006  0.2914047900000000
  3.1670926499999998  9.0524425199999996  3.3829047900000000
  8.5015926499999992  1.1060574800000000  5.8915952100000002
  7.5019073499999998 19.2109425199999997  2.8000952099999998
  5.9714393000000001 11.7913772899999998  5.6567030400000000
 10.0320607000000006  8.5256227100000004  2.5652030400000001
  4.6975607000000004  1.6328772899999999  0.5262969600000000
  0.6369393000000000 11.7913772899999998  3.6177969600000002
  4.6975607000000004  8.5256227100000004  0.5262969600000000
 10.0320607000000006  1.6328772899999999  2.5652030400000001
  5.9714393000000001 18.6841227100000005  5.6567030400000000
  8.7407916300000004  5.0792500000000000  4.3273580400000000
  1.1537456600000000  5.0792500000000000  2.5668724500000000
  0.6369393000000000 18.6841227100000005  3.6177969600000002
  2.7540255934883300 13.3429188134854346  4.0213003342025768
  9.9322916323639472 14.0091150007082277  8.3657645285214297
  7.5182390576372837  4.1010565867819420  8.3276654704959281
  1.4899392369951023  0.6089734254431980  3.8078616577166668
  8.5956948618241178 11.8926446214488131 10.7370426548269560
 10.2968513722761710  0.1003655926444002 11.7701045385437730
  4.8414806170220475  4.7958372638101086  0.9088607774829365
  7.0821305051970391  9.6430755026089692 10.4390117719530906
  1.9170390885366118  4.8261677324784218 12.0122717329189150
  5.5008940289120209  9.9318959710798467  8.2464434088151268
  3.9586125622827262 20.0660761864254873  0.4959902610067584
  5.8091541861443039  0.1169987053403359  4.0138283725467421
  4.6472383857391826 16.6159377700279158  1.4865051787129440
  1.5409236700000000 13.9457919700000001 11.5653015000000003
  9.1280763300000007  3.7872919700000001  0.8006985000000000
  3.7935763300000001  6.3712080300000000  2.2908015000000002
  1.5409236700000000 13.9457919700000001  5.3823014999999996
  3.7935763300000001  3.7872919700000001  2.2908015000000002
  1.5409236700000000 16.5297080299999983  5.3823014999999996
  6.8754236700000000 13.9457919700000001  3.8921985000000001
  9.1280763300000007  6.3712080300000000  0.8006985000000000
  9.1280763300000007  6.3712080300000000  6.9836985000000000
  6.8754236700000000 13.9457919700000001 10.0751985000000008
  1.5409236700000000 16.5297080299999983 11.5653015000000003
  6.8754236700000000 16.5297080299999983 10.0751985000000008
  9.1280763300000007  3.7872919700000001  6.9836985000000000
  3.7935763300000001  6.3712080300000000  8.4738015000000004
  3.7935763300000001  3.7872919700000001  8.4738015000000004
  6.8754236700000000 16.5297080299999983  3.8921985000000001
