Al Cl Li O 
 1.0000000000000000
    10.6690000000000005    0.0000000000000000    0.0000000000000000
     0.0000000000000000   20.3170000000000002    0.0000000000000000
     0.0000000000000000    0.0000000000000000   12.3659999999999997
 Al  Cl  Li  O  
  24  54  14  16
Cartesian
  9.7591476799999999  7.8385017699999997  0.7023888000000000
  3.1208958800000000  5.0792500000000000  9.1415655000000005
  2.2136041199999998 15.2377500000000001 12.2330655000000004
  7.5481041199999996 15.2377500000000001  9.4074345000000008
  6.2443523200000000 17.9970017700000007  9.9768887999999993
  9.7591476799999999  2.3199982299999999  6.8853888000000003
  4.4246476799999996  7.8385017699999997  8.5721112000000002
  0.9098523200000000 12.4784982299999996 11.6636112000000001
  4.4246476799999996  2.3199982299999999  8.5721112000000002
  0.9098523200000000 17.9970017700000007 11.6636112000000001
  6.2443523200000000 12.4784982299999996  9.9768887999999993
  9.7591476799999999  7.8385017699999997  6.8853888000000003
  8.4553958799999993  5.0792500000000000  6.3159345000000000
  4.4246476799999996  2.3199982299999999  2.3891111999999999
  0.9098523200000000 17.9970017700000007  5.4806112000000002
  3.1208958800000000  5.0792500000000000  2.9585655000000002
  2.2136041199999998 15.2377500000000001  6.0500654999999997
  7.5481041199999996 15.2377500000000001  3.2244345000000001
  6.2443523200000000 12.4784982299999996  3.7938888000000000
  6.2443523200000000 17.9970017700000007  3.7938888000000000
  9.7591476799999999  2.3199982299999999  0.7023888000000000
  4.4246476799999996  7.8385017699999997  2.3891111999999999
  8.4553958799999993  5.0792500000000000  0.1329345000000000
  0.9098523200000000 12.4784982299999996  5.4806112000000002
  8.5015926499999992  9.0524425199999996 12.0745952100000000
  0.8526664800000000  7.7507323299999999 12.1053247200000005
  4.4818335200000003 12.5662676700000002  9.0138247200000006
  9.8163335200000006 17.9092323299999983  6.4436752799999999
  0.8526664800000000  7.7507323299999999  5.9223247199999998
  9.8163335200000006 12.5662676700000002  6.4436752799999999
  6.1871664800000001  7.7507323299999999  9.5351752800000007
  0.8526664800000000  2.4077676700000001 12.1053247200000005
  4.4818335200000003 17.9092323299999983  9.0138247200000006
  4.4818335200000003 12.5662676700000002  2.8308247199999999
  3.1670926499999998  1.1060574800000000  9.5659047899999994
  1.1537456600000000  5.0792500000000000  8.7498724499999998
  4.1807543400000000 15.2377500000000001 11.8413724499999997
  3.4062916300000001  5.0792500000000000 11.1301419599999996
  1.9282083699999999 15.2377500000000001  8.0386419599999996
  8.7407916300000004  5.0792500000000000 10.5103580399999998
  5.9714393000000001 18.6841227100000005 11.8397030399999998
 10.0320607000000006  1.6328772899999999  8.7482030399999999
  4.6975607000000004  8.5256227100000004  6.7092969599999996
  0.6369393000000000 11.7913772899999998  9.8007969599999996
  4.6975607000000004  1.6328772899999999  6.7092969599999996
  0.6369393000000000 18.6841227100000005  9.8007969599999996
  5.9714393000000001 11.7913772899999998 11.8397030399999998
 10.0320607000000006  8.5256227100000004  8.7482030399999999
  7.5019073499999998 19.2109425199999997  8.9830952100000001
  8.5015926499999992  1.1060574800000000 12.0745952100000000
  3.1670926499999998  9.0524425199999996  9.5659047899999994
  2.1674073500000000 11.2645574800000006  6.4744047900000004
  2.1674073500000000 19.2109425199999997  6.4744047900000004
  7.5019073499999998 11.2645574800000006  8.9830952100000001
  6.1871664800000001  2.4077676700000001  9.5351752800000007
  0.8526664800000000  2.4077676700000001  5.9223247199999998
  9.8163335200000006 17.9092323299999983  0.2606752800000000
  6.1871664800000001  2.4077676700000001  3.3521752800000000
  9.8163335200000006 12.5662676700000002  0.2606752800000000
  6.1871664800000001  7.7507323299999999  3.3521752800000000
  4.4818335200000003 17.9092323299999983  2.8308247199999999
  8.5015926499999992  9.0524425199999996  5.8915952100000002
  7.5019073499999998 11.2645574800000006  2.8000952099999998
  2.1674073500000000 19.2109425199999997  0.2914047900000000
  3.1670926499999998  1.1060574800000000  3.3829047900000000
  2.1674073500000000 11.2645574800000006  0.2914047900000000
  3.1670926499999998  9.0524425199999996  3.3829047900000000
  8.5015926499999992  1.1060574800000000  5.8915952100000002
 10.0320607000000006  8.5256227100000004  2.5652030400000001
  5.9714393000000001 11.7913772899999998  5.6567030400000000
  7.5019073499999998 19.2109425199999997  2.8000952099999998
  4.6975607000000004  1.6328772899999999  0.5262969600000000
  0.6369393000000000 11.7913772899999998  3.6177969600000002
  4.6975607000000004  8.5256227100000004  0.5262969600000000
 10.0320607000000006  1.6328772899999999  2.5652030400000001
  5.9714393000000001 18.6841227100000005  5.6567030400000000
  7.2627083700000004 15.2377500000000001  1.2358580400000001
  0.6369393000000000 18.6841227100000005  3.6177969600000002
  2.8698906319180573 16.2040082476457528  3.8379359840489129
  3.1117480522495562 14.1199469804329656 10.6362735636417032
  2.3387940311229749 19.8266544024772919  4.1660533610415067
  2.6363444036542525  3.2414692658596476 10.7804755844791664
  4.8257837775257446 13.0755680333077979  6.5094953051359754
  3.6215941042391981 16.5548018359878881  0.9907001903928928
  1.1195000735435077  4.9176285872789709 12.2010696283415321
  9.2923695812469873 14.5081042001345359  9.9141694752410459
  1.7868716701220153  2.1245048120740098  7.8700964658566113
  6.6811446114855713  2.6665021798730684  0.4022187355888212
  9.5467989035097691 11.1254343063154586 10.1067042233561963
  9.5391444040526849  4.6719877278891984  2.6352527699741799
  0.7702848253988271  0.6227668873153618  3.1865065993296682
  6.9383247476354697  4.0541039755274415  8.4117024459053482
  3.7935763300000001  6.3712080300000000  8.4738015000000004
  9.1280763300000007  3.7872919700000001  0.8006985000000000
  3.7935763300000001  6.3712080300000000  2.2908015000000002
  1.5409236700000000 13.9457919700000001  5.3823014999999996
  3.7935763300000001  3.7872919700000001  2.2908015000000002
  1.5409236700000000 16.5297080299999983  5.3823014999999996
  6.8754236700000000 13.9457919700000001  3.8921985000000001
  9.1280763300000007  6.3712080300000000  0.8006985000000000
  9.1280763300000007  6.3712080300000000  6.9836985000000000
  6.8754236700000000 13.9457919700000001 10.0751985000000008
  1.5409236700000000 16.5297080299999983 11.5653015000000003
  3.7935763300000001  3.7872919700000001  8.4738015000000004
  6.8754236700000000 16.5297080299999983 10.0751985000000008
  9.1280763300000007  3.7872919700000001  6.9836985000000000
  1.5409236700000000 13.9457919700000001 11.5653015000000003
  6.8754236700000000 16.5297080299999983  3.8921985000000001
